# This is a deepmd model

pair_style	deepmd ../train/frozen_model_compressed.pb
pair_coeff	* * 
